InboundTrucks  = 120;
OutboundTrucks = 60;
InboundDoors   = 16;
OutboundDoors  = 16;
ReleaseTime    = [114,30,67,93,0,54,12,52,62,103,80,13,53,17,61,12,67,10,21,120,29,28,118,54,107,42,6,109,10,96,33,48,45,46,37,9,38,86,112,30,76,14,13,45,98,46,39,64,48,14,76,54,93,11,2,66,77,91,33,45,38,68,120,92,31,74,59,34,39,6,113,89,63,38,11,105,92,92,68,102,41,110,32,53,93,12,70,59,87,89,11,34,38,39,26,47,97,108,41,85,28,35,43,18,27,40,59,14,8,0,43,46,65,37,47,82,8,85,58,13];
UnloadTime     = [4,3,4,5,12,8,4,7,1,7,3,9,10,11,4,3,3,4,11,6,10,12,8,7,1,3,8,4,3,3,12,2,4,8,9,10,6,1,10,9,4,9,8,5,5,7,12,3,1,11,6,7,3,11,5,10,11,7,9,2,10,3,8,10,3,4,4,3,3,7,3,3,10,4,6,9,4,3,5,10,2,9,1,4,7,9,7,4,3,8,10,7,4,1,12,5,7,6,6,4,3,9,2,12,6,12,3,5,3,6,11,4,11,12,2,2,10,6,8,6];
LoadTime       = [11,6,6,4,9,10,10,8,7,4,11,12,2,3,8,6,3,9,3,10,12,8,3,1,8,4,3,11,8,7,6,9,3,8,10,3,1,2,6,5,4,3,12,2,8,3,9,3,6,3,5,3,3,4,9,3,4,7,7,4];
TransferTime   = [| 0,0,1,1,0,0,2,0,0,0,2,1,1,1,1,0,0,0,0,0,0,0,0,2,0,0,2,0,0,1,0,1,0,2,0,0,0,2,1,0,2,0,0,2,0,1,0,0,0,0,0,1,1,0,2,2,0,1,0,0 | 2,2,0,0,0,0,2,1,0,2,0,0,2,2,2,0,0,1,0,1,2,0,1,0,1,0,2,0,0,1,0,1,0,0,0,0,1,2,0,1,0,0,2,0,2,0,2,2,0,1,0,2,2,0,1,0,0,2,0,0 | 0,0,1,2,1,0,0,0,1,0,0,0,0,0,0,1,0,2,2,2,0,2,0,0,1,0,0,0,1,0,1,1,0,2,0,1,0,0,2,0,0,2,0,0,1,2,2,0,0,0,0,1,0,2,0,2,1,0,1,1 | 0,2,1,0,1,0,0,0,0,0,1,2,0,2,0,1,0,1,1,2,0,2,1,0,0,0,2,0,0,0,0,0,0,0,1,0,1,0,1,0,0,0,0,2,0,0,0,2,0,1,0,1,0,1,2,1,2,0,1,0 | 1,0,1,0,0,0,1,0,2,1,1,1,0,0,1,0,0,0,0,0,0,0,1,0,0,0,1,2,0,0,0,0,0,1,0,0,0,0,0,0,0,1,2,0,0,0,0,0,0,0,0,2,0,0,0,0,0,0,0,0 | 2,2,0,0,0,2,1,0,2,2,0,0,0,0,0,2,2,0,1,0,1,2,2,1,0,1,2,1,0,0,0,0,1,1,2,1,0,0,1,2,1,2,0,0,1,0,0,1,1,1,0,0,2,2,2,0,0,0,0,0 | 2,0,0,1,0,2,1,1,0,0,0,0,1,2,0,1,0,0,0,1,2,1,0,0,0,1,1,2,2,2,0,0,0,0,2,2,2,1,0,0,0,0,2,0,0,0,0,0,0,0,0,1,2,0,0,0,0,1,1,0 | 0,2,0,0,0,2,0,2,0,0,0,2,2,1,0,2,2,2,0,1,1,2,1,0,0,0,0,0,0,0,0,0,2,0,0,0,0,1,2,0,2,0,2,0,2,0,0,2,0,2,0,1,0,1,0,2,1,2,2,0 | 0,0,0,0,0,2,2,0,0,0,0,0,0,0,0,0,1,0,0,0,1,0,0,2,1,0,2,0,0,2,0,2,2,1,0,2,0,2,2,0,2,0,0,0,0,0,0,0,1,1,0,0,1,0,1,1,1,0,1,0 | 0,0,0,2,0,2,0,1,2,0,1,1,0,1,1,1,2,2,0,1,1,1,0,0,0,2,0,0,0,0,0,0,1,2,1,2,2,0,0,0,0,1,0,2,0,2,1,2,1,1,1,0,0,1,0,0,1,0,2,0 | 2,0,0,2,2,0,2,0,2,0,2,0,0,2,0,0,0,0,0,2,0,2,0,0,0,0,0,0,0,0,0,0,0,1,0,0,0,2,1,0,2,0,1,1,0,0,0,0,0,1,0,0,0,0,0,0,0,0,0,0 | 0,1,0,2,0,0,2,1,0,0,0,0,0,0,0,0,1,0,2,0,2,1,2,2,0,0,0,1,0,2,1,2,0,0,2,2,0,0,0,0,0,0,1,0,0,0,0,1,0,0,1,2,0,0,0,2,0,1,0,0 | 1,0,0,1,2,2,0,2,2,0,1,2,0,2,0,2,0,0,0,2,0,0,0,2,1,0,2,0,2,0,2,2,0,1,2,0,2,1,2,2,0,1,1,1,1,1,0,0,2,0,0,0,2,1,2,0,0,2,0,0 | 2,1,0,1,0,0,0,0,0,0,0,1,1,1,0,0,0,2,0,2,0,0,0,0,1,0,0,2,1,0,2,0,0,0,2,2,1,0,0,0,0,0,1,2,0,1,1,0,2,0,2,0,0,2,0,0,0,0,0,0 | 0,2,2,2,1,0,0,0,1,2,1,2,0,1,2,0,0,0,2,0,0,0,0,0,0,2,0,0,0,2,0,0,1,0,0,2,0,0,0,0,0,0,2,0,0,1,1,1,0,0,0,2,0,0,0,0,0,0,1,0 | 1,0,0,2,0,0,2,1,0,0,0,2,0,1,0,2,0,0,0,0,0,0,0,2,1,2,2,0,0,2,0,0,2,0,2,0,0,0,2,0,2,0,0,0,0,0,0,0,1,2,0,0,1,2,2,0,0,0,0,2 | 0,1,1,2,0,0,0,0,0,0,0,0,0,0,0,1,2,0,0,0,0,0,2,0,1,0,0,0,2,1,0,0,2,0,1,1,0,1,0,0,0,0,1,0,2,0,0,0,0,0,2,2,0,2,0,2,0,0,0,0 | 0,2,2,2,0,2,1,1,1,1,1,0,0,2,0,0,0,1,0,2,2,0,0,0,0,0,0,1,1,2,0,0,0,0,0,1,1,1,0,0,0,1,1,0,0,0,0,0,0,1,0,0,0,0,2,1,1,0,1,1 | 0,0,0,0,0,2,2,1,1,0,0,0,1,1,1,0,1,0,0,0,0,2,0,2,1,2,0,0,2,0,0,0,0,0,0,1,0,0,0,0,2,2,0,0,1,1,0,1,1,0,0,0,0,0,0,2,0,2,0,0 | 0,1,2,0,2,2,2,0,0,2,2,2,2,0,0,0,1,1,1,0,1,1,0,0,1,2,0,0,0,2,0,0,0,0,0,2,2,2,0,2,0,0,0,0,1,0,1,1,0,1,1,0,0,2,1,1,2,0,2,1 | 0,0,1,0,2,2,0,0,0,0,0,2,1,0,0,0,0,0,1,0,0,0,2,2,0,0,0,0,2,0,0,0,2,0,2,0,0,2,2,0,1,2,0,2,2,2,0,2,0,2,0,0,1,0,0,0,2,2,0,0 | 0,1,0,0,2,2,2,1,1,0,0,0,0,2,2,0,0,0,2,0,0,2,1,0,2,1,1,0,0,0,0,0,1,0,0,2,2,0,0,0,0,0,0,1,2,0,1,0,0,0,2,0,1,0,0,0,2,0,0,2 | 0,0,1,1,2,0,0,0,0,0,0,0,1,2,2,1,0,0,0,1,0,2,0,0,2,2,0,0,0,0,2,0,1,1,2,0,0,0,2,0,0,0,1,0,0,0,1,0,0,0,1,2,2,0,0,0,0,0,1,0 | 0,2,1,0,1,1,0,2,0,0,1,0,0,0,0,1,0,2,0,2,1,1,0,2,0,0,2,2,0,0,0,0,0,0,0,0,0,0,0,2,2,0,0,0,0,1,1,0,0,1,1,1,1,0,1,0,0,0,0,2 | 0,0,0,4,0,0,0,0,4,0,1,0,0,0,1,0,4,0,4,1,2,2,0,0,1,0,1,3,0,0,4,4,4,0,0,0,0,3,0,0,0,0,3,3,3,1,0,0,0,0,0,0,0,0,0,0,0,0,0,0 | 4,0,0,0,0,0,0,1,5,0,4,0,0,4,2,4,0,2,0,0,0,0,0,5,0,0,1,0,0,0,0,0,0,0,4,0,4,0,5,0,0,5,0,5,4,0,0,0,4,0,0,0,0,0,0,0,0,0,0,4 | 1,0,5,4,0,5,0,4,3,0,0,4,0,0,0,0,1,0,0,0,5,1,0,2,0,1,0,0,0,0,1,0,0,0,0,1,2,4,0,5,0,0,0,0,0,0,0,0,0,0,0,5,3,0,3,1,1,1,0,5 | 0,0,0,4,0,0,0,0,4,0,0,2,0,0,0,0,4,1,0,0,0,0,0,2,0,0,0,0,0,3,0,0,1,3,0,4,5,0,2,0,3,0,5,5,5,0,0,0,0,0,0,0,0,1,0,0,1,0,0,0 | 2,0,0,1,4,0,0,0,0,0,0,0,0,5,0,0,0,0,0,0,0,0,3,0,0,1,0,1,3,0,1,0,0,0,0,0,0,5,4,0,0,0,0,5,0,0,4,1,0,0,1,0,4,0,4,0,0,4,0,5 | 0,0,0,0,0,0,0,3,0,0,3,0,3,0,0,2,0,0,0,1,0,0,0,5,0,5,0,4,0,0,0,5,4,5,0,5,0,3,0,0,0,0,4,0,0,0,0,2,0,0,5,0,0,3,0,0,0,0,0,5 | 0,4,0,0,2,5,0,0,0,5,0,0,0,0,0,0,0,0,0,2,0,0,3,1,0,2,0,0,0,2,0,2,0,0,0,0,1,0,0,3,0,0,0,0,0,0,0,0,0,2,0,0,0,4,0,0,1,0,0,2 | 2,3,0,0,0,0,0,0,4,0,0,0,0,5,4,4,0,0,0,5,1,2,1,0,0,3,1,0,0,2,3,0,0,0,1,0,0,0,0,0,0,0,0,5,0,0,0,0,0,0,0,0,4,0,0,1,0,0,1,3 | 5,0,0,0,0,0,0,0,4,0,1,2,0,1,0,0,0,0,1,2,1,0,0,0,5,0,0,0,0,0,0,0,0,0,0,2,5,0,0,0,0,4,0,0,0,0,1,4,0,0,0,0,0,0,0,5,0,0,0,0 | 0,4,0,2,0,4,0,0,0,1,3,2,4,0,0,0,0,0,0,0,0,3,0,3,0,0,2,0,0,0,0,2,0,0,4,0,5,0,0,0,2,0,0,0,3,1,0,0,0,0,2,0,3,0,1,0,4,4,0,0 | 5,0,0,0,0,2,3,0,0,0,3,1,0,0,1,0,0,0,0,0,4,0,4,3,0,0,4,0,1,0,0,3,0,1,0,0,0,2,3,0,0,0,0,0,1,0,4,2,0,0,0,0,1,5,0,2,0,0,0,0 | 4,0,5,0,0,5,0,1,0,0,0,0,0,1,0,0,0,0,0,5,0,0,0,0,0,0,0,0,0,0,0,0,5,0,0,0,0,4,0,0,0,0,4,0,0,0,3,0,0,1,0,5,0,0,5,0,2,0,0,0 | 0,5,4,0,3,2,0,0,4,0,3,0,0,3,0,0,0,0,0,4,0,0,5,0,0,0,3,0,0,2,5,4,0,0,0,0,1,0,0,0,0,0,0,0,0,0,0,1,0,0,5,0,2,0,1,0,0,0,0,3 | 3,0,0,0,0,0,0,0,3,0,0,3,5,0,0,0,0,0,0,0,0,0,0,0,0,1,2,0,0,0,1,0,0,0,0,0,0,0,0,5,2,0,0,0,5,0,0,2,2,0,0,3,4,0,0,0,4,0,3,0 | 0,1,0,1,0,0,0,0,0,3,0,0,0,0,4,0,0,0,0,0,0,0,5,0,0,2,0,3,4,0,0,3,0,0,4,0,0,0,0,0,0,5,4,0,0,0,0,0,0,0,0,0,0,3,0,4,4,0,0,3 | 5,2,0,2,0,2,4,0,0,4,4,0,2,0,0,2,0,0,5,0,0,0,0,0,0,0,0,0,2,1,0,4,1,0,0,0,0,0,1,1,4,5,0,0,0,2,0,0,0,0,3,0,0,0,0,0,0,3,4,0 | 0,0,0,0,0,0,1,0,1,0,0,0,2,0,4,0,0,4,1,0,0,0,0,0,1,0,0,0,5,0,0,5,0,0,0,0,0,5,5,0,0,2,2,0,0,0,2,0,4,0,1,1,5,0,0,0,0,3,0,0 | 0,0,0,0,0,5,0,5,0,0,0,0,0,0,0,0,4,0,0,0,2,1,0,3,4,0,0,0,0,0,0,0,0,0,0,4,0,0,1,0,4,0,1,0,0,0,0,0,0,0,1,0,0,0,0,0,1,0,0,4 | 5,0,2,0,0,3,0,0,0,0,2,0,0,0,0,0,0,0,0,0,0,0,0,0,2,0,0,0,0,0,3,0,1,0,0,0,1,0,0,3,0,0,2,0,0,5,4,0,0,0,0,2,0,2,0,5,0,0,3,0 | 4,0,0,2,3,4,0,0,0,2,0,0,2,4,0,0,0,0,0,3,0,0,4,3,0,0,0,0,5,3,0,0,0,4,0,0,0,0,4,0,0,0,1,0,5,0,3,0,0,3,5,0,0,4,3,0,0,0,5,5 | 0,0,0,0,0,0,0,0,0,0,0,4,4,0,2,1,0,0,0,0,0,0,4,0,3,5,1,2,1,1,0,0,2,0,0,0,0,0,0,2,3,0,2,0,0,2,3,0,0,0,0,0,0,4,0,0,3,2,0,1 | 3,0,0,1,0,0,3,0,0,0,3,0,0,0,0,0,2,0,0,0,3,0,0,0,0,0,0,0,0,0,0,0,0,0,4,2,0,0,4,0,0,3,4,0,0,0,1,0,0,0,0,0,0,0,0,2,0,0,0,0 | 2,0,0,0,2,0,0,0,1,0,0,0,0,0,0,0,0,0,0,0,0,0,0,0,4,2,2,2,0,0,0,0,0,0,0,0,0,0,0,5,1,0,0,0,0,0,4,0,0,3,5,0,0,0,0,2,0,0,0,0 | 0,0,0,0,0,2,0,0,0,0,0,0,0,2,4,0,5,0,0,0,0,0,0,5,0,0,0,0,0,3,0,0,0,0,0,0,0,0,0,5,0,0,0,0,0,4,0,2,0,0,0,0,0,2,0,4,5,3,4,3 | 5,3,0,1,0,0,1,0,0,0,2,0,0,4,0,4,0,0,4,3,0,0,5,0,0,0,0,0,2,0,0,1,0,3,5,2,0,4,0,0,4,0,4,2,0,0,3,0,0,0,0,0,0,0,0,0,4,5,2,4 | 0,1,0,0,0,0,0,0,0,0,0,4,0,2,5,0,0,0,0,0,2,0,5,0,4,0,0,0,0,0,0,0,0,4,1,0,1,0,0,0,0,0,3,0,0,4,5,2,0,0,1,0,0,0,0,0,0,5,0,3 | 0,0,2,0,5,1,0,0,0,3,0,2,0,0,0,5,0,0,3,3,1,2,0,0,0,0,0,0,0,0,0,0,0,0,2,5,0,0,4,0,0,1,0,0,0,0,5,0,1,5,0,0,0,0,0,0,0,0,0,0 | 0,5,0,5,0,1,4,2,0,0,0,2,0,0,0,0,0,0,0,0,3,0,0,2,0,0,0,1,2,0,0,0,0,5,0,0,0,3,0,1,0,3,0,5,4,2,0,0,0,0,1,0,0,0,0,0,0,0,0,0 | 2,0,4,0,5,0,0,0,0,5,1,5,4,0,1,1,0,0,0,0,4,0,0,0,0,0,0,0,0,0,0,0,1,0,3,0,0,0,0,0,0,0,3,1,2,1,4,0,0,0,0,0,0,0,2,0,1,0,0,0 | 0,0,0,0,3,0,0,0,0,4,0,0,3,0,0,0,0,0,3,0,4,0,0,4,0,0,3,0,0,3,4,2,5,2,0,3,1,5,0,0,0,0,0,1,1,0,3,3,0,0,0,0,0,0,0,0,0,0,3,0 | 3,0,0,0,0,0,1,0,0,0,0,4,0,0,4,0,0,4,0,0,0,4,3,0,0,4,0,0,0,0,0,2,0,0,2,1,3,0,2,0,0,0,0,0,0,0,0,0,0,0,0,0,0,2,0,5,4,0,0,0 | 0,3,3,1,0,0,0,0,0,0,0,0,0,0,0,4,0,0,0,0,0,0,3,0,0,0,3,0,2,0,0,0,0,0,0,0,0,2,0,5,5,0,3,0,0,0,0,0,4,0,0,0,0,0,0,0,5,3,0,0 | 5,0,1,0,0,0,0,0,0,0,3,0,0,3,0,0,0,0,0,0,0,0,0,3,0,3,0,0,0,0,0,4,3,0,0,1,0,5,0,0,4,5,2,0,0,2,0,0,3,0,0,0,0,0,0,2,0,0,0,0 | 4,0,0,3,0,0,0,0,0,0,0,1,0,0,2,0,3,0,0,1,0,0,3,0,0,0,0,0,3,0,1,0,0,0,0,0,1,0,5,0,0,5,0,0,0,1,0,0,4,0,0,5,2,0,4,0,0,0,1,0 | 5,3,0,1,0,5,0,0,0,0,0,0,0,0,0,0,0,0,1,0,4,0,0,0,0,0,0,0,0,0,3,2,1,0,0,0,0,0,0,3,0,0,0,0,0,3,2,0,0,4,0,0,0,0,1,0,5,0,0,1 | 0,0,0,0,1,5,0,0,0,0,0,0,0,5,0,3,0,3,0,0,2,0,1,1,1,3,3,0,5,0,0,0,0,0,0,0,0,5,0,0,0,0,0,0,0,0,0,0,0,1,0,0,3,0,2,0,0,0,0,4 | 0,0,4,0,0,0,0,0,0,1,3,0,0,0,0,0,0,0,3,0,3,0,1,1,1,0,0,1,0,4,2,0,0,0,3,0,0,0,0,0,0,0,0,0,0,0,5,3,5,4,0,0,0,0,1,2,0,0,4,0 | 3,0,0,0,0,0,0,0,5,0,0,0,0,0,2,0,0,0,1,1,0,0,1,0,3,0,0,0,0,0,5,0,0,0,0,4,5,0,2,0,0,0,0,0,0,0,3,0,0,0,0,0,0,0,2,4,0,0,0,0 | 0,2,3,0,0,0,0,0,4,2,0,0,3,0,0,0,0,0,0,1,0,0,0,0,0,0,0,2,4,0,5,0,0,3,0,0,0,0,0,2,0,0,4,0,0,1,2,0,4,3,5,0,0,0,4,5,0,0,0,0 | 0,0,0,0,0,0,5,0,3,0,0,0,0,0,0,1,0,2,0,0,0,0,0,4,0,0,0,0,0,3,0,0,3,5,0,0,0,0,0,0,0,0,5,0,0,0,0,0,2,0,0,2,0,0,0,3,0,0,0,0 | 0,0,0,0,4,0,0,4,0,0,0,0,4,0,0,4,0,0,0,0,5,0,4,3,0,1,0,0,1,0,0,0,0,0,0,4,1,0,0,0,2,0,0,0,0,2,0,0,2,0,4,0,0,0,0,0,0,0,2,0 | 0,0,4,5,0,0,3,2,5,0,5,2,0,0,0,0,4,5,4,0,0,0,0,0,0,0,0,4,0,1,3,0,2,1,0,0,3,0,1,0,0,0,0,0,1,0,0,0,0,0,0,0,5,0,0,1,5,3,0,0 | 3,0,0,0,0,2,0,1,4,0,0,2,5,0,0,0,0,0,0,0,0,4,0,0,0,0,0,0,3,0,0,3,0,1,3,0,0,0,5,4,5,0,1,0,0,0,1,0,0,2,0,0,0,3,0,4,0,0,0,0 | 0,0,2,0,0,0,1,0,3,4,0,3,0,0,3,4,0,0,4,0,0,5,0,0,0,4,2,0,0,0,0,0,0,0,0,5,0,0,0,0,0,0,4,0,0,0,0,0,0,0,4,0,0,0,0,0,0,0,0,2 | 0,0,2,0,0,4,0,5,0,3,0,0,0,3,0,0,1,0,4,0,0,4,3,0,0,0,0,5,0,3,5,5,0,0,0,0,0,5,1,0,0,0,5,0,0,0,0,0,0,0,4,0,0,1,0,3,0,0,0,0 | 3,3,1,3,0,0,4,0,0,0,0,0,0,0,1,0,0,0,0,0,4,0,0,0,0,1,1,0,0,0,2,0,0,0,5,0,0,0,4,0,0,0,0,1,0,0,0,0,0,1,0,0,0,0,0,0,0,4,1,0 | 2,0,0,0,0,0,0,0,2,0,0,0,2,5,5,1,0,5,0,0,5,0,0,0,0,4,0,0,0,0,0,0,2,0,0,0,0,0,2,0,0,0,4,0,4,4,0,0,0,3,0,0,0,0,0,0,4,0,0,4 | 0,4,3,0,4,0,0,0,0,0,0,0,0,0,3,2,0,4,0,0,0,0,0,0,0,0,0,4,0,0,0,0,0,0,2,0,0,0,0,4,0,4,3,0,0,0,0,0,0,0,1,2,0,0,0,0,1,0,0,3 | 4,0,0,2,0,0,0,0,0,0,0,0,0,0,3,3,0,0,4,3,3,0,0,0,0,0,4,1,0,4,0,0,1,0,0,5,3,0,0,0,0,0,0,0,0,0,0,0,0,0,0,2,0,0,0,2,2,0,0,5 | 1,5,0,0,0,0,0,5,5,0,0,0,0,5,0,0,1,0,0,0,0,0,0,2,0,4,0,0,1,0,0,0,0,0,0,0,0,0,0,4,0,1,2,0,0,3,0,0,0,3,0,0,0,0,1,0,0,4,0,1 | 2,2,0,0,0,0,0,1,0,0,0,0,0,0,0,2,0,4,0,1,0,0,0,0,0,0,2,0,1,0,0,0,0,0,5,0,5,2,0,0,0,0,3,2,0,0,3,0,0,4,0,0,4,0,0,0,0,0,0,0 | 4,5,3,0,0,0,0,0,0,2,0,0,0,0,1,5,0,4,0,0,0,2,0,0,3,0,0,0,4,4,1,0,0,0,0,0,0,0,0,0,0,0,0,0,4,5,0,0,0,0,0,0,0,0,0,0,0,3,0,0 | 3,0,0,0,3,0,0,5,0,0,0,0,0,0,0,0,0,3,0,0,0,0,2,0,0,0,1,0,0,0,0,1,0,0,0,5,0,0,0,0,0,0,0,0,0,0,3,5,0,0,3,1,4,0,0,0,0,1,0,0 | 5,1,0,0,3,0,0,0,2,0,0,0,0,0,0,0,0,5,0,0,3,0,0,0,0,0,0,0,0,0,0,0,0,0,0,4,0,0,5,0,0,0,0,0,0,0,0,0,4,0,0,0,1,0,0,2,0,0,0,0 | 2,0,2,0,0,0,5,0,0,0,0,0,0,0,0,0,0,0,0,0,0,0,3,5,0,0,0,0,2,0,0,0,0,0,0,4,0,0,0,0,0,0,0,0,0,0,0,2,2,0,0,4,0,0,0,0,0,0,0,0 | 0,4,0,0,0,0,0,0,0,0,0,0,1,4,0,2,0,0,1,4,5,0,1,5,0,0,0,0,3,0,0,0,0,0,0,0,0,0,0,0,0,2,0,0,4,5,0,1,0,3,0,0,3,4,0,4,3,0,5,1 | 0,0,0,0,0,5,0,2,2,0,0,0,0,0,0,0,0,0,0,0,0,0,3,0,0,0,0,1,0,0,0,0,0,0,0,0,1,0,0,3,0,3,0,0,0,0,0,0,0,0,0,0,0,2,1,0,4,0,5,0 | 0,5,0,3,3,1,0,0,0,0,0,0,0,5,0,0,0,0,0,1,0,0,2,1,0,1,0,0,5,0,5,0,4,0,0,1,0,0,0,0,0,0,1,0,4,0,0,0,3,0,0,0,0,0,0,0,0,0,0,0 | 0,0,0,0,2,0,3,0,0,2,0,0,0,4,0,0,0,5,0,0,0,2,0,1,0,0,0,0,0,1,0,0,0,0,0,0,0,0,0,0,0,5,0,0,0,0,0,4,2,0,0,0,5,1,0,0,0,0,1,5 | 0,1,0,0,0,0,1,3,2,1,0,0,2,0,5,0,5,2,1,3,5,2,0,3,0,0,0,0,4,0,0,0,0,0,5,2,0,0,1,0,0,4,0,0,2,0,0,0,0,4,0,0,0,0,0,3,0,0,0,0 | 0,0,0,0,5,0,0,0,0,1,0,0,0,0,0,0,0,0,0,5,0,0,0,3,0,0,0,0,0,0,0,0,3,0,0,2,5,1,0,0,4,0,0,0,0,0,0,1,1,0,0,1,0,4,0,0,4,0,0,1 | 0,0,2,3,0,4,0,0,0,0,0,2,1,0,0,0,0,0,0,3,3,0,0,0,2,2,2,3,0,0,2,0,5,0,0,1,3,0,0,5,0,0,0,0,0,0,0,4,0,4,0,0,0,1,0,2,0,0,0,0 | 0,0,0,0,5,4,4,3,3,0,0,1,0,0,0,1,1,1,0,0,5,0,0,0,0,0,0,0,0,0,0,0,0,3,0,0,0,0,0,5,4,3,0,5,0,1,5,0,0,1,3,0,1,0,1,2,0,0,0,1 | 0,2,0,0,0,3,0,0,0,0,0,0,0,4,4,0,0,0,0,0,0,0,0,5,5,2,0,0,0,0,0,0,0,0,0,1,5,0,0,1,0,0,4,0,3,1,5,0,0,0,2,0,0,5,3,0,0,4,0,0 | 0,1,0,0,0,0,0,0,2,4,3,0,0,1,0,1,5,0,0,0,0,0,3,0,0,0,0,2,0,3,0,4,0,0,1,0,0,0,0,4,0,0,5,5,0,0,0,0,3,0,0,0,0,0,0,3,0,0,5,3 | 0,1,0,4,2,3,0,0,0,0,0,0,0,0,0,0,1,0,0,0,0,0,0,0,0,0,0,0,1,0,0,0,0,5,1,0,0,0,0,0,0,0,1,0,0,0,5,2,0,0,5,0,0,0,0,5,1,2,0,5 | 3,0,0,0,0,0,0,0,0,4,0,1,0,0,4,0,4,0,0,0,0,0,0,0,0,0,1,0,3,1,0,0,2,0,0,0,0,2,0,1,5,5,3,0,0,4,0,0,0,4,0,3,4,0,0,4,0,0,0,0 | 1,0,0,5,0,0,0,0,0,3,0,0,5,3,0,2,0,0,2,0,0,5,0,2,0,0,2,1,0,0,4,0,0,0,0,1,0,0,0,1,4,5,0,0,0,0,0,0,0,0,2,0,0,5,0,0,0,0,1,2 | 0,0,3,0,5,0,0,0,0,4,0,0,0,0,0,2,0,0,0,0,0,0,0,4,0,1,1,5,0,0,0,0,0,0,0,0,0,0,4,0,0,5,3,0,5,0,2,0,0,0,0,3,0,0,4,4,0,0,0,0 | 0,0,2,0,0,0,0,0,0,0,3,0,0,5,2,0,0,1,0,3,0,5,0,2,0,2,0,0,0,1,0,0,0,0,0,0,5,5,0,0,0,2,0,0,0,0,0,3,0,0,0,0,0,0,0,0,0,0,0,2 | 1,0,0,0,0,0,0,5,1,0,0,0,1,2,0,0,0,1,0,0,0,0,0,0,4,5,0,4,0,0,0,2,4,4,4,1,4,1,0,0,0,2,0,5,0,0,0,0,0,0,4,0,0,1,0,0,0,0,4,3 | 3,0,1,0,0,2,5,0,0,0,0,4,3,0,0,2,0,3,0,0,0,3,0,0,0,0,0,0,1,0,5,0,0,4,0,3,1,1,3,0,0,0,0,0,1,0,2,2,0,0,0,0,0,0,0,0,0,0,0,0 | 0,0,5,3,4,0,0,1,0,0,0,4,4,0,0,0,0,2,5,0,4,0,5,0,0,0,0,0,0,2,0,0,0,0,0,0,0,0,0,0,0,0,0,0,0,1,2,0,0,3,0,1,4,0,5,0,0,0,0,1 | 0,3,0,0,0,0,0,0,1,1,0,3,0,4,0,0,0,5,0,0,2,2,0,0,0,0,0,4,0,0,0,0,5,0,0,0,0,0,2,5,0,0,0,5,4,0,4,0,0,0,1,0,2,5,0,5,2,2,0,0 | 1,0,0,0,0,0,0,0,0,0,4,0,0,5,0,2,5,0,0,4,0,3,0,5,0,0,0,0,3,3,0,2,5,0,0,0,2,0,4,4,0,1,3,0,4,0,0,0,0,0,0,0,5,0,0,0,3,0,0,0 | 5,0,0,0,0,0,0,0,4,4,0,0,0,5,0,0,0,0,0,0,0,5,0,0,3,0,1,4,1,0,0,3,5,0,4,0,1,5,0,0,0,0,0,5,0,0,0,0,5,0,0,0,1,2,0,5,0,3,0,0 | 0,5,0,0,1,0,0,0,0,0,0,0,0,0,0,4,3,0,3,0,0,0,0,0,0,0,0,2,4,0,0,2,0,0,0,3,5,0,4,3,0,3,3,0,3,5,0,5,0,0,0,0,2,0,3,4,0,4,0,0 | 3,0,5,5,0,0,0,0,0,0,0,2,4,0,0,0,0,2,0,0,3,2,0,4,3,0,1,5,0,5,0,0,1,1,0,2,0,0,0,3,0,0,2,0,0,0,0,0,0,1,0,0,3,5,4,3,1,0,0,4 | 1,0,0,0,0,0,0,5,0,0,1,3,0,0,0,0,2,0,1,0,0,2,2,0,0,2,0,0,0,0,0,0,0,3,0,0,0,3,0,4,0,0,0,0,0,0,4,0,0,0,4,2,2,0,0,3,0,0,1,0 | 0,0,0,0,1,0,1,2,0,2,0,0,0,0,4,0,0,0,1,5,0,0,0,0,0,0,0,0,0,0,2,5,0,2,5,1,0,0,5,5,0,0,0,2,0,4,0,0,1,0,1,0,0,0,1,1,2,0,0,0 | 1,0,0,0,3,0,0,0,2,0,4,0,0,0,1,0,0,3,1,1,0,0,0,4,0,5,0,0,1,0,0,0,0,0,0,0,4,0,0,2,0,0,0,0,0,0,0,0,0,3,5,4,0,1,4,0,0,1,0,0 | 5,5,0,0,0,4,3,0,0,0,0,0,0,0,4,0,0,1,3,0,4,2,0,0,0,0,2,0,5,0,0,0,0,0,0,0,3,4,4,0,0,0,1,0,1,0,0,0,0,0,5,0,0,0,5,0,0,0,0,0 | 3,0,0,0,0,0,3,4,1,0,3,0,5,0,3,0,0,0,0,0,0,0,0,3,0,0,0,0,0,1,5,0,5,0,0,0,0,0,2,0,1,4,5,0,0,3,0,2,0,0,0,3,1,0,1,2,0,4,0,5 | 0,0,0,0,3,0,4,0,0,0,0,0,4,0,0,0,0,2,2,0,1,0,0,1,1,0,0,0,0,0,0,0,0,3,3,5,0,5,5,0,0,2,0,2,0,3,2,0,0,0,0,0,0,0,0,0,0,0,1,0 | 0,5,0,4,2,1,2,0,0,5,0,0,0,0,0,0,2,3,0,3,1,0,0,0,0,0,0,0,1,4,0,0,0,0,0,3,0,0,5,0,5,0,0,0,0,0,0,0,3,0,0,1,4,0,1,0,0,1,0,0 | 0,0,0,0,0,0,0,0,0,0,0,0,0,0,2,0,0,0,0,0,0,3,0,0,0,3,1,3,0,2,1,0,0,0,5,0,0,0,0,0,0,4,0,0,3,0,0,0,1,0,0,0,0,0,2,0,0,0,0,0 | 0,0,0,4,0,0,0,4,0,0,0,0,0,0,0,0,0,0,0,5,4,0,0,4,0,1,0,0,0,0,0,0,4,0,0,0,0,0,0,0,0,2,0,0,2,0,0,5,3,0,0,0,1,0,0,0,0,0,4,0 | 0,0,4,0,0,0,3,0,0,0,0,0,0,0,3,0,3,0,0,0,0,0,0,0,3,0,0,0,0,0,0,0,1,5,5,5,3,0,0,0,0,0,0,1,0,2,0,0,0,0,2,0,0,3,0,3,0,0,2,2 | 0,3,0,4,4,4,0,0,0,0,0,0,5,3,0,5,3,1,0,0,0,0,0,1,0,0,0,0,0,1,0,0,0,0,0,0,1,3,1,0,5,3,2,0,4,5,0,0,4,5,0,0,2,0,0,0,0,0,4,0 | 1,0,0,0,5,0,3,0,0,1,3,0,0,0,0,0,0,0,0,1,0,0,0,0,3,4,4,0,0,0,0,0,0,0,0,0,0,0,0,2,0,0,0,5,4,0,0,0,0,0,3,0,0,0,0,1,5,0,5,0 | 0,0,3,0,0,0,3,0,0,0,0,0,0,1,0,4,0,0,0,0,0,5,3,3,0,5,0,0,3,0,0,0,0,2,0,0,0,2,0,1,5,0,0,1,0,0,4,0,0,0,4,0,0,3,4,0,0,0,1,0 | 0,2,0,0,0,0,0,0,5,0,0,4,0,4,1,0,0,3,1,0,2,3,0,0,2,0,0,0,1,0,0,0,4,5,4,0,1,0,0,0,0,0,0,3,2,0,0,0,0,1,0,0,0,0,3,0,0,2,0,0 | 0,5,0,0,4,0,0,0,0,0,0,3,0,3,0,0,0,0,3,0,0,0,0,0,0,1,2,5,0,1,0,2,0,0,0,0,0,0,3,3,1,0,3,3,2,0,0,0,0,0,3,0,0,1,0,0,2,0,0,2 | 5,0,0,0,0,0,0,2,0,0,0,0,0,0,0,0,0,0,0,0,0,0,0,2,0,0,2,5,2,0,0,0,0,0,0,0,0,4,3,5,0,0,0,4,0,0,3,2,0,0,0,0,0,3,0,0,3,0,4,0 | 4,0,1,0,0,0,0,2,0,0,0,3,1,0,0,0,2,0,0,0,4,4,0,0,2,2,5,0,0,0,0,1,0,0,0,0,0,3,2,0,0,5,0,0,2,0,3,0,0,0,0,0,0,0,1,0,0,0,0,0 | 0,0,0,0,0,0,1,0,0,3,3,2,0,2,0,0,0,0,0,0,0,0,5,0,0,1,4,0,0,0,0,0,1,4,0,0,3,0,0,0,3,0,0,0,5,0,5,0,0,0,0,0,0,0,1,0,0,4,0,2 |];
